<number of tasks>
29

<cycle time>
41

<task times>
1 7
2 19
3 15
4 5
5 12
6 10
7 8
8 16
9 2
10 6
11 21
12 10
13 9
14 4
15 14
16 7
17 14
18 17
19 10
20 16
21 1
22 9
23 25
24 14
25 14
26 2
27 10
28 7
29 20

<precedence relations>
1,3
1,25
2,6
2,26
3,4
4,5
5,8
5,13
6,8
7,9
7,12
7,25
8,11
8,16
9,10
10,14
10,15
11,17
12,15
13,17
14,16
15,19
16,18
17,20
18,22
19,21
20,23
21,22
22,23
23,24
23,28
24,29
25,29
26,27
27,29
28,29

<setup times forward>
1,3:1
1,6:1
1,10:1
1,15:1
1,25:1
1,26:1
1,27:1
2,3:1
2,6:1
2,10:1
2,15:1
2,25:1
2,26:1
3,2:1
3,4:1
3,7:1
3,9:1
3,12:1
3,14:1
3,19:1
3,21:1
4,6:1
4,10:1
4,15:1
4,25:1
4,26:1
4,27:1
5,6:1
5,8:1
5,10:1
5,15:1
5,25:1
5,26:1
5,27:1
6,1:1
6,4:1
6,5:1
6,7:1
6,9:1
6,12:1
6,13:1
6,14:1
6,19:1
6,21:1
7,3:1
7,6:1
7,8:1
7,11:1
7,25:1
7,26:1
7,27:1
8,7:1
8,9:1
8,12:1
8,13:1
8,14:1
8,19:1
8,21:1
9,3:1
9,6:1
9,8:1
9,10:1
9,11:1
9,25:1
9,26:1
9,27:1
10,1:1
10,2:1
10,4:1
10,5:1
10,12:1
10,13:1
10,14:1
10,17:1
10,20:1
11,7:1
11,9:1
11,12:1
11,13:1
11,14:1
11,17:1
11,19:1
11,21:1
12,3:1
12,6:1
12,8:1
12,10:1
12,11:1
12,15:1
12,16:1
12,18:1
12,25:1
12,26:1
12,27:1
13,6:1
13,8:1
13,10:1
13,11:1
13,15:1
13,16:1
13,18:1
13,22:1
13,25:1
13,26:1
13,27:1
14,3:1
14,6:1
14,8:1
14,11:1
14,15:1
14,16:1
14,25:1
14,26:1
14,27:1
15,1:1
15,2:1
15,4:1
15,5:1
15,13:1
15,14:1
15,17:1
15,19:1
15,20:1
16,12:1
16,13:1
16,17:1
16,19:1
16,20:1
16,21:1
17,10:1
17,15:1
17,16:1
17,18:1
17,22:1
17,25:1
17,26:1
17,27:1
18,12:1
18,13:1
18,17:1
18,19:1
18,20:1
18,21:1
19,3:1
19,6:1
19,8:1
19,11:1
19,16:1
19,18:1
19,25:1
19,26:1
19,27:1
20,10:1
20,15:1
20,16:1
20,18:1
20,22:1
20,25:1
20,26:1
20,27:1
21,3:1
21,6:1
21,8:1
21,11:1
21,16:1
21,18:1
21,22:1
21,25:1
21,26:1
21,27:1
22,13:1
22,17:1
22,20:1
22,23:1
23,24:1
23,25:1
23,26:1
23,27:1
24,28:1
25,2:1
25,4:1
25,5:1
25,9:1
25,12:1
25,13:1
25,14:1
25,17:1
25,19:1
25,20:1
25,21:1
25,23:1
25,28:1
26,1:1
26,4:1
26,5:1
26,7:1
26,9:1
26,12:1
26,13:1
26,14:1
26,17:1
26,19:1
26,20:1
26,21:1
26,23:1
26,28:1
27,1:1
27,4:1
27,5:1
27,7:1
27,9:1
27,12:1
27,13:1
27,14:1
27,17:1
27,19:1
27,20:1
27,21:1
27,23:1
27,28:1
28,24:1
28,25:1
28,26:1
28,27:1
28,29:1

<setup times backward>
1,1:2
1,2:2
1,6:3
1,7:2
1,9:2
1,10:3
1,12:2
1,14:2
1,15:3
1,19:2
1,21:2
1,26:3
1,27:3
2,1:2
2,2:2
2,3:3
2,4:2
2,5:2
2,7:2
2,9:2
2,10:3
2,12:2
2,13:2
2,14:2
2,15:3
2,19:2
2,21:2
2,25:3
3,1:1
3,2:1
3,3:2
3,6:2
3,7:1
3,9:1
3,10:2
3,12:1
3,14:1
3,15:2
3,19:1
3,21:1
3,25:2
3,26:2
3,27:2
4,1:2
4,2:2
4,3:3
4,4:2
4,6:3
4,7:2
4,9:2
4,10:3
4,12:2
4,14:2
4,15:3
4,19:2
4,21:2
4,25:3
4,26:3
4,27:3
5,1:2
5,2:2
5,3:3
5,4:2
5,5:2
5,6:3
5,7:2
5,9:2
5,10:3
5,12:2
5,14:2
5,15:3
5,19:2
5,21:2
5,25:3
5,26:3
5,27:3
6,1:1
6,2:1
6,3:2
6,4:1
6,5:1
6,6:2
6,7:1
6,9:1
6,10:2
6,12:1
6,13:1
6,14:1
6,15:2
6,19:1
6,21:1
6,25:2
6,26:2
6,27:2
7,1:2
7,2:2
7,3:3
7,4:2
7,5:2
7,6:3
7,7:2
7,8:3
7,11:3
7,13:2
7,17:2
7,20:2
7,26:3
7,27:3
8,1:1
8,2:1
8,3:2
8,4:1
8,5:1
8,6:2
8,7:1
8,8:2
8,9:1
8,10:2
8,12:1
8,13:1
8,14:1
8,15:2
8,19:1
8,21:1
8,25:2
8,26:2
8,27:2
9,1:2
9,2:2
9,3:3
9,4:2
9,5:2
9,6:3
9,7:2
9,8:3
9,9:2
9,11:3
9,12:2
9,13:2
9,17:2
9,20:2
9,25:3
9,26:3
9,27:3
10,1:1
10,2:1
10,3:2
10,4:1
10,5:1
10,6:2
10,7:1
10,8:2
10,9:1
10,10:2
10,11:2
10,12:1
10,13:1
10,17:1
10,20:1
10,25:2
10,26:2
10,27:2
11,1:1
11,2:1
11,3:2
11,4:1
11,5:1
11,6:2
11,7:1
11,8:2
11,9:1
11,10:2
11,11:2
11,12:1
11,13:1
11,14:1
11,15:2
11,16:2
11,18:2
11,19:1
11,21:1
11,22:2
11,25:2
11,26:2
11,27:2
12,1:2
12,2:2
12,3:3
12,4:2
12,5:2
12,6:3
12,7:2
12,8:3
12,9:2
12,10:3
12,11:3
12,12:2
12,13:2
12,14:2
12,16:3
12,17:2
12,18:3
12,20:2
12,25:3
12,26:3
12,27:3
13,1:2
13,2:2
13,3:3
13,4:2
13,5:2
13,6:3
13,7:2
13,8:3
13,9:2
13,10:3
13,11:3
13,12:2
13,13:2
13,14:2
13,15:3
13,16:3
13,18:3
13,19:2
13,21:2
13,22:3
13,25:3
13,26:3
13,27:3
14,1:2
14,2:2
14,3:3
14,4:2
14,5:2
14,6:3
14,7:2
14,8:3
14,9:2
14,10:3
14,11:3
14,12:2
14,13:2
14,14:2
14,15:3
14,17:2
14,19:2
14,20:2
14,21:2
14,25:3
14,26:3
14,27:3
15,1:1
15,2:1
15,3:2
15,4:1
15,5:1
15,6:2
15,7:1
15,8:2
15,9:1
15,10:2
15,11:2
15,12:1
15,13:1
15,14:1
15,15:2
15,16:2
15,17:1
15,18:2
15,20:1
15,25:2
15,26:2
15,27:2
16,1:1
16,2:1
16,3:2
16,4:1
16,5:1
16,6:2
16,7:1
16,8:2
16,9:1
16,10:2
16,11:2
16,12:1
16,13:1
16,14:1
16,15:2
16,16:2
16,17:1
16,19:1
16,20:1
16,21:1
16,25:2
16,26:2
16,27:2
17,1:2
17,2:2
17,3:3
17,4:2
17,5:2
17,6:3
17,7:2
17,8:3
17,9:2
17,10:3
17,11:3
17,12:2
17,13:2
17,14:2
17,15:3
17,16:3
17,17:2
17,18:3
17,19:2
17,21:2
17,22:3
17,25:3
17,26:3
17,27:3
18,1:1
18,2:1
18,3:2
18,4:1
18,5:1
18,6:2
18,7:1
18,8:2
18,9:1
18,10:2
18,11:2
18,12:1
18,13:1
18,14:1
18,15:2
18,16:2
18,17:1
18,18:2
18,19:1
18,20:1
18,21:1
18,25:2
18,26:2
18,27:2
19,1:2
19,2:2
19,3:3
19,4:2
19,5:2
19,6:3
19,7:2
19,8:3
19,9:2
19,10:3
19,11:3
19,12:2
19,13:2
19,14:2
19,15:3
19,16:3
19,17:2
19,18:3
19,19:2
19,20:2
19,25:3
19,26:3
19,27:3
20,1:2
20,2:2
20,3:3
20,4:2
20,5:2
20,6:3
20,7:2
20,8:3
20,9:2
20,10:3
20,11:3
20,12:2
20,13:2
20,14:2
20,15:3
20,16:3
20,17:2
20,18:3
20,19:2
20,20:2
20,21:2
20,22:3
20,25:3
20,26:3
20,27:3
21,1:2
21,2:2
21,3:3
21,4:2
21,5:2
21,6:3
21,7:2
21,8:3
21,9:2
21,10:3
21,11:3
21,12:2
21,13:2
21,14:2
21,15:3
21,16:3
21,17:2
21,18:3
21,19:2
21,20:2
21,21:2
21,25:3
21,26:3
21,27:3
22,1:1
22,2:1
22,3:2
22,4:1
22,5:1
22,6:2
22,7:1
22,8:2
22,9:1
22,10:2
22,11:2
22,12:1
22,13:1
22,14:1
22,15:2
22,16:2
22,17:1
22,18:2
22,19:1
22,20:1
22,21:1
22,22:2
22,25:2
22,26:2
22,27:2
23,1:2
23,2:2
23,3:3
23,4:2
23,5:2
23,6:3
23,7:2
23,8:3
23,9:2
23,10:3
23,11:3
23,12:2
23,13:2
23,14:2
23,15:3
23,16:3
23,17:2
23,18:3
23,19:2
23,20:2
23,21:2
23,22:3
23,23:2
23,25:3
23,26:3
23,27:3
24,1:1
24,2:1
24,3:2
24,4:1
24,5:1
24,6:2
24,7:1
24,8:2
24,9:1
24,10:2
24,11:2
24,12:1
24,13:1
24,14:1
24,15:2
24,16:2
24,17:1
24,18:2
24,19:1
24,20:1
24,21:1
24,22:2
24,23:1
24,24:2
24,25:2
24,26:2
24,27:2
24,28:1
25,1:1
25,2:1
25,3:2
25,4:1
25,5:1
25,6:2
25,7:1
25,8:2
25,9:1
25,10:2
25,11:2
25,12:1
25,13:1
25,14:1
25,15:2
25,16:2
25,17:1
25,18:2
25,19:1
25,20:1
25,21:1
25,22:2
25,23:1
25,24:2
25,25:2
25,26:2
25,27:2
25,28:1
26,1:1
26,2:1
26,3:2
26,4:1
26,5:1
26,6:2
26,7:1
26,8:2
26,9:1
26,10:2
26,11:2
26,12:1
26,13:1
26,14:1
26,15:2
26,16:2
26,17:1
26,18:2
26,19:1
26,20:1
26,21:1
26,22:2
26,23:1
26,24:2
26,25:2
26,26:2
26,28:1
27,1:1
27,2:1
27,3:2
27,4:1
27,5:1
27,6:2
27,7:1
27,8:2
27,9:1
27,10:2
27,11:2
27,12:1
27,13:1
27,14:1
27,15:2
27,16:2
27,17:1
27,18:2
27,19:1
27,20:1
27,21:1
27,22:2
27,23:1
27,24:2
27,25:2
27,26:2
27,27:2
27,28:1
28,1:2
28,2:2
28,3:3
28,4:2
28,5:2
28,6:3
28,7:2
28,8:3
28,9:2
28,10:3
28,11:3
28,12:2
28,13:2
28,14:2
28,15:3
28,16:3
28,17:2
28,18:3
28,19:2
28,20:2
28,21:2
28,22:3
28,23:2
28,24:3
28,25:3
28,26:3
28,27:3
28,28:2
29,1:1
29,2:1
29,3:2
29,4:1
29,5:1
29,6:2
29,7:1
29,8:2
29,9:1
29,10:2
29,11:2
29,12:1
29,13:1
29,14:1
29,15:2
29,16:2
29,17:1
29,18:2
29,19:1
29,20:1
29,21:1
29,22:2
29,23:1
29,24:2
29,25:2
29,26:2
29,27:2
29,28:1
29,29:2

<end>

<optimal SALBP-1 value>
8


<rand seed>
467321153

